VER
2

OBJSENSE
MIN

VAR
2 1
F 2

INT
2
0
1

PSDCON
3
2
2
2

OBJACOORD
1
0 -1

HCOORD
4
0 0 1 0 1
1 0 0 0 1
1 1 1 1 1
2 1 1 0 1

DCOORD
5
0 0 0 1
0 1 1 2
1 1 0 1
2 0 0 2
2 1 1 1

BCOORD
0

ACOORD
0

FCOORD
0

PSDVARRANK1
0

PSDCONRANK1
0

OBJFCOORD
0

CON
0 0

PSDVAR
0